(declare-fun |i8'| () Bool)
(declare-fun v12 () Bool)
(declare-fun v14 () Bool)
(declare-fun v20 () Bool)
(declare-fun |i2'| () Bool)
(declare-fun i6 () Bool)
(declare-fun v30 () Bool)
(declare-fun |i4'| () Bool)
(declare-fun i10 () Bool)
(declare-fun i4 () Bool)
(declare-fun i2 () Bool)
(declare-fun v16 () Bool)
(declare-fun v24 () Bool)
(declare-fun v26 () Bool)
(declare-fun v18 () Bool)
(declare-fun |i10'| () Bool)
(declare-fun i8 () Bool)
(declare-fun v22 () Bool)
(declare-fun |i6'| () Bool)
(declare-fun v28 () Bool)
(assert (= |i8'| true))
(assert (= v12 true))
(assert (= v14 true))
(assert (= v20 false))
(assert (= |i2'| true))
(assert (= i6 true))
(assert (= v30 false))
(assert (= |i4'| true))
(assert (= i10 true))
(assert (= i4 true))
(assert (= i2 true))
(assert (= v16 false))
(assert (= v24 false))
(assert (= v26 true))
(assert (= v18 true))
(assert (= |i10'| true))
(assert (= i8 true))
(assert (= v22 true))
(assert (= |i6'| true))
(assert (= v28 false))
(assert (let ((a!1 (and (not (not v14)) (not (and v30 (not v28))) i10))
      (a!2 (and v22 (not (and (not v18) (not v16))) i4))
      (a!3 (and v18 (not (and (not v14) (not v12))) i2))
      (a!4 (and v26 (not (and (not v22) (not v20))) i6))
      (a!5 (and (not v30) (not (and (not v26) (not v24))) i8)))
(let ((a!6 (and (not (and (not a!1)
                          (not a!2)
                          (not a!3)
                          (not a!4)
                          (not a!5)
                          (not |i10'|)
                          (not |i8'|)
                          (not |i6'|)
                          (not |i4'|)))
                (not a!3)))
      (a!7 (and (not (and (not a!1)
                          (not a!2)
                          (not a!3)
                          (not a!4)
                          (not a!5)
                          (not |i10'|)
                          (not |i8'|)
                          (not |i6'|)))
                (not a!2)))
      (a!8 (and (not (and (not a!1)
                          (not a!2)
                          (not a!3)
                          (not a!4)
                          (not a!5)
                          (not |i10'|)
                          (not |i8'|)))
                (not a!4)))
      (a!9 (and (not (and (not a!1)
                          (not a!2)
                          (not a!3)
                          (not a!4)
                          (not a!5)
                          (not |i10'|)))
                (not a!5)))
      (a!10 (and (not a!1) (not (and (not a!2) (not a!3) (not a!4) (not a!5))))))
(let ((a!11 (and (not (and (not a!6) |i2'| (not a!7) |i4'|))
                 (not (and (not a!6) |i2'| (not a!8) |i6'|))
                 (not (and (not a!6) |i2'| (not a!9) |i8'|))
                 (not (and (not a!6) |i2'| (not a!10) |i10'|))
                 (not (and (not a!7) |i4'| (not a!8) |i6'|))
                 (not (and (not a!7) |i4'| (not a!9) |i8'|))
                 (not (and (not a!7) |i4'| (not a!10) |i10'|))
                 (not (and (not a!8) |i6'| (not a!9) |i8'|))
                 (not (and (not a!8) |i6'| (not a!10) |i10'|))
                 (not (and (not a!10) |i10'| (not a!9) |i8'|)))))
  (not (not a!11))))))
